words_hard_train/4938.qaiger
aag 48 13 0 1 35
2
4
8
12
16
20
28
32
38
58
66
76
80
96
6 3 5
10 6 9
14 10 13
18 14 17
22 19 20
24 18 21
26 23 25
30 26 28
34 33 16
36 35 19
40 15 39
42 11 12
44 41 43
46 32 17
48 45 47
50 36 49
52 27 29
54 50 53
56 31 55
60 25 58
62 24 59
64 61 63
68 65 67
70 57 69
72 64 66
74 71 73
78 75 76
82 62 81
84 79 83
86 74 77
88 63 80
90 87 89
92 84 91
94 78 82
96 93 95
i0 1 x1[0]
i1 1 x1[2]
i2 1 x1[1]
i3 1 x1[3]
i4 1 x1[4]
i5 1 x1[5]
i6 2 y2[2]
i7 2 y2[1]
i8 2 y2[0]
i9 1 x1[6]
i10 2 y2[3]
i11 1 x1[7]
i12 2 y2[4]
o0 bv[0]
c
simplified
  >=
    add
      subtract
        << 3
          2 y2
        1
      1
    1 x1
