words_hard_train/4938.qaiger.qdimacs
p cnf 48 106
a 1 2 4 6 38 8 10 29 0
e 3 5 7 9 11 12 13 14 15 16 17 18 19 20 21 22 23 24 25 26 27 28 30 31 32 33 34 35 36 37 39 40 41 42 43 44 45 46 47 48 0
1 2 3 0
-1 -3 0
-2 -3 0
-3 4 5 0
3 -5 0
-4 -5 0
-5 6 7 0
5 -7 0
-6 -7 0
-7 8 9 0
7 -9 0
-8 -9 0
9 -10 11 0
-9 -11 0
10 -11 0
-9 10 12 0
9 -12 0
-10 -12 0
11 12 13 0
-11 -13 0
-12 -13 0
-13 -14 15 0
13 -15 0
14 -15 0
16 -8 17 0
-16 -17 0
8 -17 0
17 9 18 0
-17 -18 0
-9 -18 0
7 19 20 0
-7 -20 0
-19 -20 0
5 -6 21 0
-5 -21 0
6 -21 0
20 21 22 0
-20 -22 0
-21 -22 0
-16 8 23 0
16 -23 0
-8 -23 0
22 23 24 0
-22 -24 0
-23 -24 0
-18 24 25 0
18 -25 0
-24 -25 0
13 14 26 0
-13 -26 0
-14 -26 0
-25 26 27 0
25 -27 0
-26 -27 0
15 27 28 0
-15 -28 0
-27 -28 0
12 -29 30 0
-12 -30 0
29 -30 0
-12 29 31 0
12 -31 0
-29 -31 0
30 31 32 0
-30 -32 0
-31 -32 0
32 33 34 0
-32 -34 0
-33 -34 0
28 34 35 0
-28 -35 0
-34 -35 0
-32 -33 36 0
32 -36 0
33 -36 0
35 36 37 0
-35 -37 0
-36 -37 0
37 -38 39 0
-37 -39 0
38 -39 0
-31 40 41 0
31 -41 0
-40 -41 0
39 41 42 0
-39 -42 0
-41 -42 0
-37 38 43 0
37 -43 0
-38 -43 0
31 -40 44 0
-31 -44 0
40 -44 0
43 44 45 0
-43 -45 0
-44 -45 0
-42 45 46 0
42 -46 0
-45 -46 0
-39 -41 47 0
39 -47 0
41 -47 0
46 47 48 0
-46 -48 0
-47 -48 0
48 0
